c This is a random SAT instance with 10 variables and 20 clauses
p cnf 10 20
-10 -3 8 -4 4 -5 1 0
2 0
-7 3 -3 9 8 0
-8 -7 3 -3 -10 -5 -2 1 2 0
-9 -7 -4 9 3 -2 7 0
-8 1 6 -3 0
8 0
-2 4 8 -4 -6 -8 -7 0
-10 2 -8 -1 0
5 -2 4 3 -3 -8 -9 0
-2 -6 -5 5 -4 0
4 -1 2 -8 -10 3 0
-3 3 10 1 -1 2 -2 8 7 5 0
5 8 -10 -2 0
-9 -10 -3 -6 -2 4 -5 0
-3 2 9 -1 10 -8 -7 -9 0
-6 7 4 8 0
-10 -9 6 0
1 8 -3 -2 3 -10 0
3 8 1 9 4 6 0